*SENSE:Minimize
NAME          MODEL
ROWS
 N  OBJ
 L  C0000000
 L  C0000001
 L  C0000002
 L  C0000003
 L  C0000004
 L  C0000005
 L  C0000006
 L  C0000007
 L  C0000008
 L  C0000009
 L  C0000010
 L  C0000011
 L  C0000012
 L  C0000013
 L  C0000014
 L  C0000015
 L  C0000016
 L  C0000017
 E  C0000018
 G  C0000019
COLUMNS
    MARK      'MARKER'                 'INTORG'
    X0000017  C0000000   1.000000000000e+00
    X0000017  C0000001   1.000000000000e+00
    X0000017  C0000002   1.000000000000e+00
    X0000017  C0000003   1.000000000000e+00
    X0000017  C0000004   1.000000000000e+00
    X0000017  C0000005   1.000000000000e+00
    X0000017  C0000006   1.000000000000e+00
    X0000017  C0000007   1.000000000000e+00
    X0000017  C0000008   1.000000000000e+00
    X0000017  C0000009   1.000000000000e+00
    X0000017  C0000010   1.000000000000e+00
    X0000017  C0000011   1.000000000000e+00
    X0000017  C0000012   1.000000000000e+00
    X0000017  C0000013   1.000000000000e+00
    X0000017  C0000014   1.000000000000e+00
    X0000017  C0000015   1.000000000000e+00
    X0000017  C0000016   1.000000000000e+00
    X0000017  C0000017   1.000000000000e+00
    X0000017  C0000019   6.000000000000e+01
    MARK      'MARKER'                 'INTEND'
    MARK      'MARKER'                 'INTORG'
    X0000017  C0000000   1.000000000000e+00
    X0000017  C0000001   1.000000000000e+00
    X0000017  C0000002   1.000000000000e+00
    X0000017  C0000003   1.000000000000e+00
    X0000017  C0000004   1.000000000000e+00
    X0000017  C0000005   1.000000000000e+00
    X0000017  C0000006   1.000000000000e+00
    X0000017  C0000007   1.000000000000e+00
    X0000017  C0000008   1.000000000000e+00
    X0000017  C0000009   1.000000000000e+00
    X0000017  C0000010   1.000000000000e+00
    X0000017  C0000011   1.000000000000e+00
    X0000017  C0000012   1.000000000000e+00
    X0000017  C0000013   1.000000000000e+00
    X0000017  C0000014   1.000000000000e+00
    X0000017  C0000015   1.000000000000e+00
    X0000017  C0000016   1.000000000000e+00
    X0000017  C0000017   1.000000000000e+00
    X0000017  C0000019   6.000000000000e+01
    MARK      'MARKER'                 'INTEND'
    MARK      'MARKER'                 'INTORG'
    X0000017  C0000000   1.000000000000e+00
    X0000017  C0000001   1.000000000000e+00
    X0000017  C0000002   1.000000000000e+00
    X0000017  C0000003   1.000000000000e+00
    X0000017  C0000004   1.000000000000e+00
    X0000017  C0000005   1.000000000000e+00
    X0000017  C0000006   1.000000000000e+00
    X0000017  C0000007   1.000000000000e+00
    X0000017  C0000008   1.000000000000e+00
    X0000017  C0000009   1.000000000000e+00
    X0000017  C0000010   1.000000000000e+00
    X0000017  C0000011   1.000000000000e+00
    X0000017  C0000012   1.000000000000e+00
    X0000017  C0000013   1.000000000000e+00
    X0000017  C0000014   1.000000000000e+00
    X0000017  C0000015   1.000000000000e+00
    X0000017  C0000016   1.000000000000e+00
    X0000017  C0000017   1.000000000000e+00
    X0000017  C0000019   6.000000000000e+01
    MARK      'MARKER'                 'INTEND'
    MARK      'MARKER'                 'INTORG'
    X0000017  C0000000   1.000000000000e+00
    X0000017  C0000001   1.000000000000e+00
    X0000017  C0000002   1.000000000000e+00
    X0000017  C0000003   1.000000000000e+00
    X0000017  C0000004   1.000000000000e+00
    X0000017  C0000005   1.000000000000e+00
    X0000017  C0000006   1.000000000000e+00
    X0000017  C0000007   1.000000000000e+00
    X0000017  C0000008   1.000000000000e+00
    X0000017  C0000009   1.000000000000e+00
    X0000017  C0000010   1.000000000000e+00
    X0000017  C0000011   1.000000000000e+00
    X0000017  C0000012   1.000000000000e+00
    X0000017  C0000013   1.000000000000e+00
    X0000017  C0000014   1.000000000000e+00
    X0000017  C0000015   1.000000000000e+00
    X0000017  C0000016   1.000000000000e+00
    X0000017  C0000017   1.000000000000e+00
    X0000017  C0000019   6.000000000000e+01
    MARK      'MARKER'                 'INTEND'
    MARK      'MARKER'                 'INTORG'
    X0000017  C0000000   1.000000000000e+00
    X0000017  C0000001   1.000000000000e+00
    X0000017  C0000002   1.000000000000e+00
    X0000017  C0000003   1.000000000000e+00
    X0000017  C0000004   1.000000000000e+00
    X0000017  C0000005   1.000000000000e+00
    X0000017  C0000006   1.000000000000e+00
    X0000017  C0000007   1.000000000000e+00
    X0000017  C0000008   1.000000000000e+00
    X0000017  C0000009   1.000000000000e+00
    X0000017  C0000010   1.000000000000e+00
    X0000017  C0000011   1.000000000000e+00
    X0000017  C0000012   1.000000000000e+00
    X0000017  C0000013   1.000000000000e+00
    X0000017  C0000014   1.000000000000e+00
    X0000017  C0000015   1.000000000000e+00
    X0000017  C0000016   1.000000000000e+00
    X0000017  C0000017   1.000000000000e+00
    X0000017  C0000019   6.000000000000e+01
    MARK      'MARKER'                 'INTEND'
    MARK      'MARKER'                 'INTORG'
    X0000017  C0000000   1.000000000000e+00
    X0000017  C0000001   1.000000000000e+00
    X0000017  C0000002   1.000000000000e+00
    X0000017  C0000003   1.000000000000e+00
    X0000017  C0000004   1.000000000000e+00
    X0000017  C0000005   1.000000000000e+00
    X0000017  C0000006   1.000000000000e+00
    X0000017  C0000007   1.000000000000e+00
    X0000017  C0000008   1.000000000000e+00
    X0000017  C0000009   1.000000000000e+00
    X0000017  C0000010   1.000000000000e+00
    X0000017  C0000011   1.000000000000e+00
    X0000017  C0000012   1.000000000000e+00
    X0000017  C0000013   1.000000000000e+00
    X0000017  C0000014   1.000000000000e+00
    X0000017  C0000015   1.000000000000e+00
    X0000017  C0000016   1.000000000000e+00
    X0000017  C0000017   1.000000000000e+00
    X0000017  C0000019   6.000000000000e+01
    MARK      'MARKER'                 'INTEND'
    MARK      'MARKER'                 'INTORG'
    X0000017  C0000000   1.000000000000e+00
    X0000017  C0000001   1.000000000000e+00
    X0000017  C0000002   1.000000000000e+00
    X0000017  C0000003   1.000000000000e+00
    X0000017  C0000004   1.000000000000e+00
    X0000017  C0000005   1.000000000000e+00
    X0000017  C0000006   1.000000000000e+00
    X0000017  C0000007   1.000000000000e+00
    X0000017  C0000008   1.000000000000e+00
    X0000017  C0000009   1.000000000000e+00
    X0000017  C0000010   1.000000000000e+00
    X0000017  C0000011   1.000000000000e+00
    X0000017  C0000012   1.000000000000e+00
    X0000017  C0000013   1.000000000000e+00
    X0000017  C0000014   1.000000000000e+00
    X0000017  C0000015   1.000000000000e+00
    X0000017  C0000016   1.000000000000e+00
    X0000017  C0000017   1.000000000000e+00
    X0000017  C0000019   6.000000000000e+01
    MARK      'MARKER'                 'INTEND'
    MARK      'MARKER'                 'INTORG'
    X0000017  C0000000   1.000000000000e+00
    X0000017  C0000001   1.000000000000e+00
    X0000017  C0000002   1.000000000000e+00
    X0000017  C0000003   1.000000000000e+00
    X0000017  C0000004   1.000000000000e+00
    X0000017  C0000005   1.000000000000e+00
    X0000017  C0000006   1.000000000000e+00
    X0000017  C0000007   1.000000000000e+00
    X0000017  C0000008   1.000000000000e+00
    X0000017  C0000009   1.000000000000e+00
    X0000017  C0000010   1.000000000000e+00
    X0000017  C0000011   1.000000000000e+00
    X0000017  C0000012   1.000000000000e+00
    X0000017  C0000013   1.000000000000e+00
    X0000017  C0000014   1.000000000000e+00
    X0000017  C0000015   1.000000000000e+00
    X0000017  C0000016   1.000000000000e+00
    X0000017  C0000017   1.000000000000e+00
    X0000017  C0000019   6.000000000000e+01
    MARK      'MARKER'                 'INTEND'
    MARK      'MARKER'                 'INTORG'
    X0000017  C0000000   1.000000000000e+00
    X0000017  C0000001   1.000000000000e+00
    X0000017  C0000002   1.000000000000e+00
    X0000017  C0000003   1.000000000000e+00
    X0000017  C0000004   1.000000000000e+00
    X0000017  C0000005   1.000000000000e+00
    X0000017  C0000006   1.000000000000e+00
    X0000017  C0000007   1.000000000000e+00
    X0000017  C0000008   1.000000000000e+00
    X0000017  C0000009   1.000000000000e+00
    X0000017  C0000010   1.000000000000e+00
    X0000017  C0000011   1.000000000000e+00
    X0000017  C0000012   1.000000000000e+00
    X0000017  C0000013   1.000000000000e+00
    X0000017  C0000014   1.000000000000e+00
    X0000017  C0000015   1.000000000000e+00
    X0000017  C0000016   1.000000000000e+00
    X0000017  C0000017   1.000000000000e+00
    X0000017  C0000019   6.000000000000e+01
    MARK      'MARKER'                 'INTEND'
    MARK      'MARKER'                 'INTORG'
    X0000017  C0000000   1.000000000000e+00
    X0000017  C0000001   1.000000000000e+00
    X0000017  C0000002   1.000000000000e+00
    X0000017  C0000003   1.000000000000e+00
    X0000017  C0000004   1.000000000000e+00
    X0000017  C0000005   1.000000000000e+00
    X0000017  C0000006   1.000000000000e+00
    X0000017  C0000007   1.000000000000e+00
    X0000017  C0000008   1.000000000000e+00
    X0000017  C0000009   1.000000000000e+00
    X0000017  C0000010   1.000000000000e+00
    X0000017  C0000011   1.000000000000e+00
    X0000017  C0000012   1.000000000000e+00
    X0000017  C0000013   1.000000000000e+00
    X0000017  C0000014   1.000000000000e+00
    X0000017  C0000015   1.000000000000e+00
    X0000017  C0000016   1.000000000000e+00
    X0000017  C0000017   1.000000000000e+00
    X0000017  C0000019   6.000000000000e+01
    MARK      'MARKER'                 'INTEND'
    MARK      'MARKER'                 'INTORG'
    X0000017  C0000000   1.000000000000e+00
    X0000017  C0000001   1.000000000000e+00
    X0000017  C0000002   1.000000000000e+00
    X0000017  C0000003   1.000000000000e+00
    X0000017  C0000004   1.000000000000e+00
    X0000017  C0000005   1.000000000000e+00
    X0000017  C0000006   1.000000000000e+00
    X0000017  C0000007   1.000000000000e+00
    X0000017  C0000008   1.000000000000e+00
    X0000017  C0000009   1.000000000000e+00
    X0000017  C0000010   1.000000000000e+00
    X0000017  C0000011   1.000000000000e+00
    X0000017  C0000012   1.000000000000e+00
    X0000017  C0000013   1.000000000000e+00
    X0000017  C0000014   1.000000000000e+00
    X0000017  C0000015   1.000000000000e+00
    X0000017  C0000016   1.000000000000e+00
    X0000017  C0000017   1.000000000000e+00
    X0000017  C0000019   6.000000000000e+01
    MARK      'MARKER'                 'INTEND'
    MARK      'MARKER'                 'INTORG'
    X0000017  C0000000   1.000000000000e+00
    X0000017  C0000001   1.000000000000e+00
    X0000017  C0000002   1.000000000000e+00
    X0000017  C0000003   1.000000000000e+00
    X0000017  C0000004   1.000000000000e+00
    X0000017  C0000005   1.000000000000e+00
    X0000017  C0000006   1.000000000000e+00
    X0000017  C0000007   1.000000000000e+00
    X0000017  C0000008   1.000000000000e+00
    X0000017  C0000009   1.000000000000e+00
    X0000017  C0000010   1.000000000000e+00
    X0000017  C0000011   1.000000000000e+00
    X0000017  C0000012   1.000000000000e+00
    X0000017  C0000013   1.000000000000e+00
    X0000017  C0000014   1.000000000000e+00
    X0000017  C0000015   1.000000000000e+00
    X0000017  C0000016   1.000000000000e+00
    X0000017  C0000017   1.000000000000e+00
    X0000017  C0000019   6.000000000000e+01
    MARK      'MARKER'                 'INTEND'
    MARK      'MARKER'                 'INTORG'
    X0000017  C0000000   1.000000000000e+00
    X0000017  C0000001   1.000000000000e+00
    X0000017  C0000002   1.000000000000e+00
    X0000017  C0000003   1.000000000000e+00
    X0000017  C0000004   1.000000000000e+00
    X0000017  C0000005   1.000000000000e+00
    X0000017  C0000006   1.000000000000e+00
    X0000017  C0000007   1.000000000000e+00
    X0000017  C0000008   1.000000000000e+00
    X0000017  C0000009   1.000000000000e+00
    X0000017  C0000010   1.000000000000e+00
    X0000017  C0000011   1.000000000000e+00
    X0000017  C0000012   1.000000000000e+00
    X0000017  C0000013   1.000000000000e+00
    X0000017  C0000014   1.000000000000e+00
    X0000017  C0000015   1.000000000000e+00
    X0000017  C0000016   1.000000000000e+00
    X0000017  C0000017   1.000000000000e+00
    X0000017  C0000019   6.000000000000e+01
    MARK      'MARKER'                 'INTEND'
    MARK      'MARKER'                 'INTORG'
    X0000017  C0000000   1.000000000000e+00
    X0000017  C0000001   1.000000000000e+00
    X0000017  C0000002   1.000000000000e+00
    X0000017  C0000003   1.000000000000e+00
    X0000017  C0000004   1.000000000000e+00
    X0000017  C0000005   1.000000000000e+00
    X0000017  C0000006   1.000000000000e+00
    X0000017  C0000007   1.000000000000e+00
    X0000017  C0000008   1.000000000000e+00
    X0000017  C0000009   1.000000000000e+00
    X0000017  C0000010   1.000000000000e+00
    X0000017  C0000011   1.000000000000e+00
    X0000017  C0000012   1.000000000000e+00
    X0000017  C0000013   1.000000000000e+00
    X0000017  C0000014   1.000000000000e+00
    X0000017  C0000015   1.000000000000e+00
    X0000017  C0000016   1.000000000000e+00
    X0000017  C0000017   1.000000000000e+00
    X0000017  C0000019   6.000000000000e+01
    MARK      'MARKER'                 'INTEND'
    MARK      'MARKER'                 'INTORG'
    X0000017  C0000000   1.000000000000e+00
    X0000017  C0000001   1.000000000000e+00
    X0000017  C0000002   1.000000000000e+00
    X0000017  C0000003   1.000000000000e+00
    X0000017  C0000004   1.000000000000e+00
    X0000017  C0000005   1.000000000000e+00
    X0000017  C0000006   1.000000000000e+00
    X0000017  C0000007   1.000000000000e+00
    X0000017  C0000008   1.000000000000e+00
    X0000017  C0000009   1.000000000000e+00
    X0000017  C0000010   1.000000000000e+00
    X0000017  C0000011   1.000000000000e+00
    X0000017  C0000012   1.000000000000e+00
    X0000017  C0000013   1.000000000000e+00
    X0000017  C0000014   1.000000000000e+00
    X0000017  C0000015   1.000000000000e+00
    X0000017  C0000016   1.000000000000e+00
    X0000017  C0000017   1.000000000000e+00
    X0000017  C0000019   6.000000000000e+01
    MARK      'MARKER'                 'INTEND'
    MARK      'MARKER'                 'INTORG'
    X0000017  C0000000   1.000000000000e+00
    X0000017  C0000001   1.000000000000e+00
    X0000017  C0000002   1.000000000000e+00
    X0000017  C0000003   1.000000000000e+00
    X0000017  C0000004   1.000000000000e+00
    X0000017  C0000005   1.000000000000e+00
    X0000017  C0000006   1.000000000000e+00
    X0000017  C0000007   1.000000000000e+00
    X0000017  C0000008   1.000000000000e+00
    X0000017  C0000009   1.000000000000e+00
    X0000017  C0000010   1.000000000000e+00
    X0000017  C0000011   1.000000000000e+00
    X0000017  C0000012   1.000000000000e+00
    X0000017  C0000013   1.000000000000e+00
    X0000017  C0000014   1.000000000000e+00
    X0000017  C0000015   1.000000000000e+00
    X0000017  C0000016   1.000000000000e+00
    X0000017  C0000017   1.000000000000e+00
    X0000017  C0000019   6.000000000000e+01
    MARK      'MARKER'                 'INTEND'
    MARK      'MARKER'                 'INTORG'
    X0000017  C0000000   1.000000000000e+00
    X0000017  C0000001   1.000000000000e+00
    X0000017  C0000002   1.000000000000e+00
    X0000017  C0000003   1.000000000000e+00
    X0000017  C0000004   1.000000000000e+00
    X0000017  C0000005   1.000000000000e+00
    X0000017  C0000006   1.000000000000e+00
    X0000017  C0000007   1.000000000000e+00
    X0000017  C0000008   1.000000000000e+00
    X0000017  C0000009   1.000000000000e+00
    X0000017  C0000010   1.000000000000e+00
    X0000017  C0000011   1.000000000000e+00
    X0000017  C0000012   1.000000000000e+00
    X0000017  C0000013   1.000000000000e+00
    X0000017  C0000014   1.000000000000e+00
    X0000017  C0000015   1.000000000000e+00
    X0000017  C0000016   1.000000000000e+00
    X0000017  C0000017   1.000000000000e+00
    X0000017  C0000019   6.000000000000e+01
    MARK      'MARKER'                 'INTEND'
    MARK      'MARKER'                 'INTORG'
    X0000017  C0000000   1.000000000000e+00
    X0000017  C0000001   1.000000000000e+00
    X0000017  C0000002   1.000000000000e+00
    X0000017  C0000003   1.000000000000e+00
    X0000017  C0000004   1.000000000000e+00
    X0000017  C0000005   1.000000000000e+00
    X0000017  C0000006   1.000000000000e+00
    X0000017  C0000007   1.000000000000e+00
    X0000017  C0000008   1.000000000000e+00
    X0000017  C0000009   1.000000000000e+00
    X0000017  C0000010   1.000000000000e+00
    X0000017  C0000011   1.000000000000e+00
    X0000017  C0000012   1.000000000000e+00
    X0000017  C0000013   1.000000000000e+00
    X0000017  C0000014   1.000000000000e+00
    X0000017  C0000015   1.000000000000e+00
    X0000017  C0000016   1.000000000000e+00
    X0000017  C0000017   1.000000000000e+00
    X0000017  C0000019   6.000000000000e+01
    MARK      'MARKER'                 'INTEND'
    MARK      'MARKER'                 'INTORG'
    X0000035  C0000000  -7.874015748031e+00
    X0000035  C0000001  -7.843137254902e+00
    X0000035  C0000002  -7.886323268206e+00
    X0000035  C0000003  -7.858407079646e+00
    X0000035  C0000004  -7.912087912088e+00
    X0000035  C0000005  -7.920792079208e+00
    X0000035  C0000006  -7.874015748031e+00
    X0000035  C0000007  -7.843137254902e+00
    X0000035  C0000008  -7.886323268206e+00
    X0000035  C0000009  -7.858407079646e+00
    X0000035  C0000010  -7.912087912088e+00
    X0000035  C0000011  -7.920792079208e+00
    X0000035  C0000012  -7.874015748031e+00
    X0000035  C0000013  -7.843137254902e+00
    X0000035  C0000014  -7.886323268206e+00
    X0000035  C0000015  -7.858407079646e+00
    X0000035  C0000016  -7.912087912088e+00
    X0000035  C0000017  -7.920792079208e+00
    X0000035  C0000018   1.000000000000e+00
    MARK      'MARKER'                 'INTEND'
    MARK      'MARKER'                 'INTORG'
    X0000035  C0000000  -7.874015748031e+00
    X0000035  C0000001  -7.843137254902e+00
    X0000035  C0000002  -7.886323268206e+00
    X0000035  C0000003  -7.858407079646e+00
    X0000035  C0000004  -7.912087912088e+00
    X0000035  C0000005  -7.920792079208e+00
    X0000035  C0000006  -7.874015748031e+00
    X0000035  C0000007  -7.843137254902e+00
    X0000035  C0000008  -7.886323268206e+00
    X0000035  C0000009  -7.858407079646e+00
    X0000035  C0000010  -7.912087912088e+00
    X0000035  C0000011  -7.920792079208e+00
    X0000035  C0000012  -7.874015748031e+00
    X0000035  C0000013  -7.843137254902e+00
    X0000035  C0000014  -7.886323268206e+00
    X0000035  C0000015  -7.858407079646e+00
    X0000035  C0000016  -7.912087912088e+00
    X0000035  C0000017  -7.920792079208e+00
    X0000035  C0000018   1.000000000000e+00
    X0000035  OBJ        1.000000000000e+00
    MARK      'MARKER'                 'INTEND'
    MARK      'MARKER'                 'INTORG'
    X0000035  C0000000  -7.874015748031e+00
    X0000035  C0000001  -7.843137254902e+00
    X0000035  C0000002  -7.886323268206e+00
    X0000035  C0000003  -7.858407079646e+00
    X0000035  C0000004  -7.912087912088e+00
    X0000035  C0000005  -7.920792079208e+00
    X0000035  C0000006  -7.874015748031e+00
    X0000035  C0000007  -7.843137254902e+00
    X0000035  C0000008  -7.886323268206e+00
    X0000035  C0000009  -7.858407079646e+00
    X0000035  C0000010  -7.912087912088e+00
    X0000035  C0000011  -7.920792079208e+00
    X0000035  C0000012  -7.874015748031e+00
    X0000035  C0000013  -7.843137254902e+00
    X0000035  C0000014  -7.886323268206e+00
    X0000035  C0000015  -7.858407079646e+00
    X0000035  C0000016  -7.912087912088e+00
    X0000035  C0000017  -7.920792079208e+00
    X0000035  C0000018   1.000000000000e+00
    MARK      'MARKER'                 'INTEND'
    MARK      'MARKER'                 'INTORG'
    X0000035  C0000000  -7.874015748031e+00
    X0000035  C0000001  -7.843137254902e+00
    X0000035  C0000002  -7.886323268206e+00
    X0000035  C0000003  -7.858407079646e+00
    X0000035  C0000004  -7.912087912088e+00
    X0000035  C0000005  -7.920792079208e+00
    X0000035  C0000006  -7.874015748031e+00
    X0000035  C0000007  -7.843137254902e+00
    X0000035  C0000008  -7.886323268206e+00
    X0000035  C0000009  -7.858407079646e+00
    X0000035  C0000010  -7.912087912088e+00
    X0000035  C0000011  -7.920792079208e+00
    X0000035  C0000012  -7.874015748031e+00
    X0000035  C0000013  -7.843137254902e+00
    X0000035  C0000014  -7.886323268206e+00
    X0000035  C0000015  -7.858407079646e+00
    X0000035  C0000016  -7.912087912088e+00
    X0000035  C0000017  -7.920792079208e+00
    X0000035  C0000018   1.000000000000e+00
    MARK      'MARKER'                 'INTEND'
    MARK      'MARKER'                 'INTORG'
    X0000035  C0000000  -7.874015748031e+00
    X0000035  C0000001  -7.843137254902e+00
    X0000035  C0000002  -7.886323268206e+00
    X0000035  C0000003  -7.858407079646e+00
    X0000035  C0000004  -7.912087912088e+00
    X0000035  C0000005  -7.920792079208e+00
    X0000035  C0000006  -7.874015748031e+00
    X0000035  C0000007  -7.843137254902e+00
    X0000035  C0000008  -7.886323268206e+00
    X0000035  C0000009  -7.858407079646e+00
    X0000035  C0000010  -7.912087912088e+00
    X0000035  C0000011  -7.920792079208e+00
    X0000035  C0000012  -7.874015748031e+00
    X0000035  C0000013  -7.843137254902e+00
    X0000035  C0000014  -7.886323268206e+00
    X0000035  C0000015  -7.858407079646e+00
    X0000035  C0000016  -7.912087912088e+00
    X0000035  C0000017  -7.920792079208e+00
    X0000035  C0000018   1.000000000000e+00
    MARK      'MARKER'                 'INTEND'
    MARK      'MARKER'                 'INTORG'
    X0000035  C0000000  -7.874015748031e+00
    X0000035  C0000001  -7.843137254902e+00
    X0000035  C0000002  -7.886323268206e+00
    X0000035  C0000003  -7.858407079646e+00
    X0000035  C0000004  -7.912087912088e+00
    X0000035  C0000005  -7.920792079208e+00
    X0000035  C0000006  -7.874015748031e+00
    X0000035  C0000007  -7.843137254902e+00
    X0000035  C0000008  -7.886323268206e+00
    X0000035  C0000009  -7.858407079646e+00
    X0000035  C0000010  -7.912087912088e+00
    X0000035  C0000011  -7.920792079208e+00
    X0000035  C0000012  -7.874015748031e+00
    X0000035  C0000013  -7.843137254902e+00
    X0000035  C0000014  -7.886323268206e+00
    X0000035  C0000015  -7.858407079646e+00
    X0000035  C0000016  -7.912087912088e+00
    X0000035  C0000017  -7.920792079208e+00
    X0000035  C0000018   1.000000000000e+00
    MARK      'MARKER'                 'INTEND'
    MARK      'MARKER'                 'INTORG'
    X0000035  C0000000  -7.874015748031e+00
    X0000035  C0000001  -7.843137254902e+00
    X0000035  C0000002  -7.886323268206e+00
    X0000035  C0000003  -7.858407079646e+00
    X0000035  C0000004  -7.912087912088e+00
    X0000035  C0000005  -7.920792079208e+00
    X0000035  C0000006  -7.874015748031e+00
    X0000035  C0000007  -7.843137254902e+00
    X0000035  C0000008  -7.886323268206e+00
    X0000035  C0000009  -7.858407079646e+00
    X0000035  C0000010  -7.912087912088e+00
    X0000035  C0000011  -7.920792079208e+00
    X0000035  C0000012  -7.874015748031e+00
    X0000035  C0000013  -7.843137254902e+00
    X0000035  C0000014  -7.886323268206e+00
    X0000035  C0000015  -7.858407079646e+00
    X0000035  C0000016  -7.912087912088e+00
    X0000035  C0000017  -7.920792079208e+00
    X0000035  C0000018   1.000000000000e+00
    MARK      'MARKER'                 'INTEND'
    MARK      'MARKER'                 'INTORG'
    X0000035  C0000000  -7.874015748031e+00
    X0000035  C0000001  -7.843137254902e+00
    X0000035  C0000002  -7.886323268206e+00
    X0000035  C0000003  -7.858407079646e+00
    X0000035  C0000004  -7.912087912088e+00
    X0000035  C0000005  -7.920792079208e+00
    X0000035  C0000006  -7.874015748031e+00
    X0000035  C0000007  -7.843137254902e+00
    X0000035  C0000008  -7.886323268206e+00
    X0000035  C0000009  -7.858407079646e+00
    X0000035  C0000010  -7.912087912088e+00
    X0000035  C0000011  -7.920792079208e+00
    X0000035  C0000012  -7.874015748031e+00
    X0000035  C0000013  -7.843137254902e+00
    X0000035  C0000014  -7.886323268206e+00
    X0000035  C0000015  -7.858407079646e+00
    X0000035  C0000016  -7.912087912088e+00
    X0000035  C0000017  -7.920792079208e+00
    X0000035  C0000018   1.000000000000e+00
    MARK      'MARKER'                 'INTEND'
    MARK      'MARKER'                 'INTORG'
    X0000035  C0000000  -7.874015748031e+00
    X0000035  C0000001  -7.843137254902e+00
    X0000035  C0000002  -7.886323268206e+00
    X0000035  C0000003  -7.858407079646e+00
    X0000035  C0000004  -7.912087912088e+00
    X0000035  C0000005  -7.920792079208e+00
    X0000035  C0000006  -7.874015748031e+00
    X0000035  C0000007  -7.843137254902e+00
    X0000035  C0000008  -7.886323268206e+00
    X0000035  C0000009  -7.858407079646e+00
    X0000035  C0000010  -7.912087912088e+00
    X0000035  C0000011  -7.920792079208e+00
    X0000035  C0000012  -7.874015748031e+00
    X0000035  C0000013  -7.843137254902e+00
    X0000035  C0000014  -7.886323268206e+00
    X0000035  C0000015  -7.858407079646e+00
    X0000035  C0000016  -7.912087912088e+00
    X0000035  C0000017  -7.920792079208e+00
    X0000035  C0000018   1.000000000000e+00
    MARK      'MARKER'                 'INTEND'
    MARK      'MARKER'                 'INTORG'
    X0000035  C0000000  -7.874015748031e+00
    X0000035  C0000001  -7.843137254902e+00
    X0000035  C0000002  -7.886323268206e+00
    X0000035  C0000003  -7.858407079646e+00
    X0000035  C0000004  -7.912087912088e+00
    X0000035  C0000005  -7.920792079208e+00
    X0000035  C0000006  -7.874015748031e+00
    X0000035  C0000007  -7.843137254902e+00
    X0000035  C0000008  -7.886323268206e+00
    X0000035  C0000009  -7.858407079646e+00
    X0000035  C0000010  -7.912087912088e+00
    X0000035  C0000011  -7.920792079208e+00
    X0000035  C0000012  -7.874015748031e+00
    X0000035  C0000013  -7.843137254902e+00
    X0000035  C0000014  -7.886323268206e+00
    X0000035  C0000015  -7.858407079646e+00
    X0000035  C0000016  -7.912087912088e+00
    X0000035  C0000017  -7.920792079208e+00
    X0000035  C0000018   1.000000000000e+00
    MARK      'MARKER'                 'INTEND'
    MARK      'MARKER'                 'INTORG'
    X0000035  C0000000  -7.874015748031e+00
    X0000035  C0000001  -7.843137254902e+00
    X0000035  C0000002  -7.886323268206e+00
    X0000035  C0000003  -7.858407079646e+00
    X0000035  C0000004  -7.912087912088e+00
    X0000035  C0000005  -7.920792079208e+00
    X0000035  C0000006  -7.874015748031e+00
    X0000035  C0000007  -7.843137254902e+00
    X0000035  C0000008  -7.886323268206e+00
    X0000035  C0000009  -7.858407079646e+00
    X0000035  C0000010  -7.912087912088e+00
    X0000035  C0000011  -7.920792079208e+00
    X0000035  C0000012  -7.874015748031e+00
    X0000035  C0000013  -7.843137254902e+00
    X0000035  C0000014  -7.886323268206e+00
    X0000035  C0000015  -7.858407079646e+00
    X0000035  C0000016  -7.912087912088e+00
    X0000035  C0000017  -7.920792079208e+00
    X0000035  C0000018   1.000000000000e+00
    MARK      'MARKER'                 'INTEND'
    MARK      'MARKER'                 'INTORG'
    X0000035  C0000000  -7.874015748031e+00
    X0000035  C0000001  -7.843137254902e+00
    X0000035  C0000002  -7.886323268206e+00
    X0000035  C0000003  -7.858407079646e+00
    X0000035  C0000004  -7.912087912088e+00
    X0000035  C0000005  -7.920792079208e+00
    X0000035  C0000006  -7.874015748031e+00
    X0000035  C0000007  -7.843137254902e+00
    X0000035  C0000008  -7.886323268206e+00
    X0000035  C0000009  -7.858407079646e+00
    X0000035  C0000010  -7.912087912088e+00
    X0000035  C0000011  -7.920792079208e+00
    X0000035  C0000012  -7.874015748031e+00
    X0000035  C0000013  -7.843137254902e+00
    X0000035  C0000014  -7.886323268206e+00
    X0000035  C0000015  -7.858407079646e+00
    X0000035  C0000016  -7.912087912088e+00
    X0000035  C0000017  -7.920792079208e+00
    X0000035  C0000018   1.000000000000e+00
    MARK      'MARKER'                 'INTEND'
    MARK      'MARKER'                 'INTORG'
    X0000035  C0000000  -7.874015748031e+00
    X0000035  C0000001  -7.843137254902e+00
    X0000035  C0000002  -7.886323268206e+00
    X0000035  C0000003  -7.858407079646e+00
    X0000035  C0000004  -7.912087912088e+00
    X0000035  C0000005  -7.920792079208e+00
    X0000035  C0000006  -7.874015748031e+00
    X0000035  C0000007  -7.843137254902e+00
    X0000035  C0000008  -7.886323268206e+00
    X0000035  C0000009  -7.858407079646e+00
    X0000035  C0000010  -7.912087912088e+00
    X0000035  C0000011  -7.920792079208e+00
    X0000035  C0000012  -7.874015748031e+00
    X0000035  C0000013  -7.843137254902e+00
    X0000035  C0000014  -7.886323268206e+00
    X0000035  C0000015  -7.858407079646e+00
    X0000035  C0000016  -7.912087912088e+00
    X0000035  C0000017  -7.920792079208e+00
    X0000035  C0000018   1.000000000000e+00
    MARK      'MARKER'                 'INTEND'
    MARK      'MARKER'                 'INTORG'
    X0000035  C0000000  -7.874015748031e+00
    X0000035  C0000001  -7.843137254902e+00
    X0000035  C0000002  -7.886323268206e+00
    X0000035  C0000003  -7.858407079646e+00
    X0000035  C0000004  -7.912087912088e+00
    X0000035  C0000005  -7.920792079208e+00
    X0000035  C0000006  -7.874015748031e+00
    X0000035  C0000007  -7.843137254902e+00
    X0000035  C0000008  -7.886323268206e+00
    X0000035  C0000009  -7.858407079646e+00
    X0000035  C0000010  -7.912087912088e+00
    X0000035  C0000011  -7.920792079208e+00
    X0000035  C0000012  -7.874015748031e+00
    X0000035  C0000013  -7.843137254902e+00
    X0000035  C0000014  -7.886323268206e+00
    X0000035  C0000015  -7.858407079646e+00
    X0000035  C0000016  -7.912087912088e+00
    X0000035  C0000017  -7.920792079208e+00
    X0000035  C0000018   1.000000000000e+00
    MARK      'MARKER'                 'INTEND'
    MARK      'MARKER'                 'INTORG'
    X0000035  C0000000  -7.874015748031e+00
    X0000035  C0000001  -7.843137254902e+00
    X0000035  C0000002  -7.886323268206e+00
    X0000035  C0000003  -7.858407079646e+00
    X0000035  C0000004  -7.912087912088e+00
    X0000035  C0000005  -7.920792079208e+00
    X0000035  C0000006  -7.874015748031e+00
    X0000035  C0000007  -7.843137254902e+00
    X0000035  C0000008  -7.886323268206e+00
    X0000035  C0000009  -7.858407079646e+00
    X0000035  C0000010  -7.912087912088e+00
    X0000035  C0000011  -7.920792079208e+00
    X0000035  C0000012  -7.874015748031e+00
    X0000035  C0000013  -7.843137254902e+00
    X0000035  C0000014  -7.886323268206e+00
    X0000035  C0000015  -7.858407079646e+00
    X0000035  C0000016  -7.912087912088e+00
    X0000035  C0000017  -7.920792079208e+00
    X0000035  C0000018   1.000000000000e+00
    MARK      'MARKER'                 'INTEND'
    MARK      'MARKER'                 'INTORG'
    X0000035  C0000000  -7.874015748031e+00
    X0000035  C0000001  -7.843137254902e+00
    X0000035  C0000002  -7.886323268206e+00
    X0000035  C0000003  -7.858407079646e+00
    X0000035  C0000004  -7.912087912088e+00
    X0000035  C0000005  -7.920792079208e+00
    X0000035  C0000006  -7.874015748031e+00
    X0000035  C0000007  -7.843137254902e+00
    X0000035  C0000008  -7.886323268206e+00
    X0000035  C0000009  -7.858407079646e+00
    X0000035  C0000010  -7.912087912088e+00
    X0000035  C0000011  -7.920792079208e+00
    X0000035  C0000012  -7.874015748031e+00
    X0000035  C0000013  -7.843137254902e+00
    X0000035  C0000014  -7.886323268206e+00
    X0000035  C0000015  -7.858407079646e+00
    X0000035  C0000016  -7.912087912088e+00
    X0000035  C0000017  -7.920792079208e+00
    X0000035  C0000018   1.000000000000e+00
    MARK      'MARKER'                 'INTEND'
    MARK      'MARKER'                 'INTORG'
    X0000035  C0000000  -7.874015748031e+00
    X0000035  C0000001  -7.843137254902e+00
    X0000035  C0000002  -7.886323268206e+00
    X0000035  C0000003  -7.858407079646e+00
    X0000035  C0000004  -7.912087912088e+00
    X0000035  C0000005  -7.920792079208e+00
    X0000035  C0000006  -7.874015748031e+00
    X0000035  C0000007  -7.843137254902e+00
    X0000035  C0000008  -7.886323268206e+00
    X0000035  C0000009  -7.858407079646e+00
    X0000035  C0000010  -7.912087912088e+00
    X0000035  C0000011  -7.920792079208e+00
    X0000035  C0000012  -7.874015748031e+00
    X0000035  C0000013  -7.843137254902e+00
    X0000035  C0000014  -7.886323268206e+00
    X0000035  C0000015  -7.858407079646e+00
    X0000035  C0000016  -7.912087912088e+00
    X0000035  C0000017  -7.920792079208e+00
    X0000035  C0000018   1.000000000000e+00
    MARK      'MARKER'                 'INTEND'
    MARK      'MARKER'                 'INTORG'
    X0000035  C0000000  -7.874015748031e+00
    X0000035  C0000001  -7.843137254902e+00
    X0000035  C0000002  -7.886323268206e+00
    X0000035  C0000003  -7.858407079646e+00
    X0000035  C0000004  -7.912087912088e+00
    X0000035  C0000005  -7.920792079208e+00
    X0000035  C0000006  -7.874015748031e+00
    X0000035  C0000007  -7.843137254902e+00
    X0000035  C0000008  -7.886323268206e+00
    X0000035  C0000009  -7.858407079646e+00
    X0000035  C0000010  -7.912087912088e+00
    X0000035  C0000011  -7.920792079208e+00
    X0000035  C0000012  -7.874015748031e+00
    X0000035  C0000013  -7.843137254902e+00
    X0000035  C0000014  -7.886323268206e+00
    X0000035  C0000015  -7.858407079646e+00
    X0000035  C0000016  -7.912087912088e+00
    X0000035  C0000017  -7.920792079208e+00
    X0000035  C0000018   1.000000000000e+00
    MARK      'MARKER'                 'INTEND'
RHS
    RHS       C0000000   0.000000000000e+00
    RHS       C0000001   0.000000000000e+00
    RHS       C0000002   0.000000000000e+00
    RHS       C0000003   0.000000000000e+00
    RHS       C0000004   0.000000000000e+00
    RHS       C0000005   0.000000000000e+00
    RHS       C0000006   0.000000000000e+00
    RHS       C0000007   0.000000000000e+00
    RHS       C0000008   0.000000000000e+00
    RHS       C0000009   0.000000000000e+00
    RHS       C0000010   0.000000000000e+00
    RHS       C0000011   0.000000000000e+00
    RHS       C0000012   0.000000000000e+00
    RHS       C0000013   0.000000000000e+00
    RHS       C0000014   0.000000000000e+00
    RHS       C0000015   0.000000000000e+00
    RHS       C0000016   0.000000000000e+00
    RHS       C0000017   0.000000000000e+00
    RHS       C0000018   2.400000000000e+01
    RHS       C0000019   7.000000000000e+02
BOUNDS
 LO BND       X0000017   0.000000000000e+00
 LO BND       X0000017   0.000000000000e+00
 LO BND       X0000017   0.000000000000e+00
 LO BND       X0000017   0.000000000000e+00
 LO BND       X0000017   0.000000000000e+00
 LO BND       X0000017   0.000000000000e+00
 LO BND       X0000017   0.000000000000e+00
 LO BND       X0000017   0.000000000000e+00
 LO BND       X0000017   0.000000000000e+00
 LO BND       X0000017   0.000000000000e+00
 LO BND       X0000017   0.000000000000e+00
 LO BND       X0000017   0.000000000000e+00
 LO BND       X0000017   0.000000000000e+00
 LO BND       X0000017   0.000000000000e+00
 LO BND       X0000017   0.000000000000e+00
 LO BND       X0000017   0.000000000000e+00
 LO BND       X0000017   0.000000000000e+00
 LO BND       X0000017   0.000000000000e+00
 LO BND       X0000035   0.000000000000e+00
 LO BND       X0000035   0.000000000000e+00
 LO BND       X0000035   0.000000000000e+00
 LO BND       X0000035   0.000000000000e+00
 LO BND       X0000035   0.000000000000e+00
 LO BND       X0000035   0.000000000000e+00
 LO BND       X0000035   0.000000000000e+00
 LO BND       X0000035   0.000000000000e+00
 LO BND       X0000035   0.000000000000e+00
 LO BND       X0000035   0.000000000000e+00
 LO BND       X0000035   0.000000000000e+00
 LO BND       X0000035   0.000000000000e+00
 LO BND       X0000035   0.000000000000e+00
 LO BND       X0000035   0.000000000000e+00
 LO BND       X0000035   0.000000000000e+00
 LO BND       X0000035   0.000000000000e+00
 LO BND       X0000035   0.000000000000e+00
 LO BND       X0000035   0.000000000000e+00
ENDATA
